DIMENSION: 24
EDGE_WEIGHT_TYPE: EXPLICIT
EDGE_WEIGHT_FORMAT: FULL_MATRIX
EDGE_WEIGHT_SECTION:
32767 32767 32767 32767 78 32767 32767 25 32767 32767 32767 32767 10 32767 32 67 37 97 32767 32767 32767 32767 23 86 
32767 32767 32767 81 57 75 4 32767 32767 32767 32767 86 32767 32767 74 32767 32767 94 32767 32767 32767 38 68 32767 
32767 32767 32767 32767 32767 32767 32767 32767 77 32767 32767 32767 32767 76 32767 83 32767 56 32767 19 32767 32767 32767 32767 
32767 81 32767 32767 32767 30 51 32767 32767 32767 32767 32767 33 97 32767 51 53 77 32767 84 59 32767 32767 93 
78 57 32767 32767 32767 32767 21 32767 32767 32767 47 32767 13 32767 32767 32767 79 32767 73 99 32767 32767 32767 32767 
32767 75 32767 30 32767 32767 22 95 83 32767 32767 95 32767 32767 32767 11 32767 16 32 32767 32767 32767 32767 32767 
32767 4 32767 51 21 22 32767 32767 9 32767 32767 82 32767 76 32767 32767 32767 32767 50 32767 32767 56 57 30 
25 32767 32767 32767 32767 95 32767 32767 32767 51 32767 32767 32767 32767 32767 32767 32767 93 32767 32767 32767 18 17 1 
32767 32767 77 32767 32767 83 9 32767 32767 74 32767 89 32767 32767 32767 91 40 32767 54 32767 32767 32767 18 32767 
32767 32767 32767 32767 32767 32767 32767 51 74 32767 32767 43 24 37 32767 32767 83 32767 77 90 32767 32767 76 12 
32767 32767 32767 32767 47 32767 32767 32767 32767 32767 32767 32767 65 32767 32767 32767 32767 62 32767 32767 32767 32767 32767 42 
32767 86 32767 32767 32767 95 82 32767 89 43 32767 32767 32767 32767 32767 32767 67 14 32767 32767 81 32767 44 32767 
10 32767 32767 33 13 32767 32767 32767 32767 24 65 32767 32767 61 44 32767 27 32767 32767 32767 32767 24 32767 1 
32767 32767 76 97 32767 32767 76 32767 32767 37 32767 32767 61 32767 32767 32767 20 32767 86 18 32767 32767 32767 32767 
32 74 32767 32767 32767 32767 32767 32767 32767 32767 32767 32767 44 32767 32767 37 49 90 21 32767 79 32767 32767 80 
67 32767 83 51 32767 11 32767 32767 91 32767 32767 32767 32767 32767 37 32767 32767 33 32767 93 32767 32767 32767 32767 
37 32767 32767 53 79 32767 32767 32767 40 83 32767 67 27 20 49 32767 32767 32767 32767 94 20 63 82 32767 
97 94 56 77 32767 16 32767 93 32767 32767 62 14 32767 32767 90 33 32767 32767 32767 32767 74 61 32767 32767 
32767 32767 32767 32767 73 32 50 32767 54 77 32767 32767 32767 86 21 32767 32767 32767 32767 62 52 32767 35 5 
32767 32767 19 84 99 32767 32767 32767 32767 90 32767 32767 32767 18 32767 93 94 32767 62 32767 26 32767 35 32767 
32767 32767 32767 59 32767 32767 32767 32767 32767 32767 32767 81 32767 32767 79 32767 20 74 52 26 32767 32767 36 23 
32767 38 32767 32767 32767 32767 56 18 32767 32767 32767 32767 24 32767 32767 32767 63 61 32767 32767 32767 32767 32767 32767 
23 68 32767 32767 32767 32767 57 17 18 76 32767 44 32767 32767 32767 32767 82 32767 35 35 36 32767 32767 32767 
86 32767 32767 93 32767 32767 30 1 32767 12 42 32767 1 32767 80 32767 32767 32767 5 32767 23 32767 32767 32767 
EOF